Traveling Salesman Problem/TSP_generados/Aleatorio1620390937_9.tsp
NAME: Aleatorio1620390937_9.tsp
COMMENT: Randomly generated scenario
TYPE: TSP
DIMENSION: 9
EDGE_WEIGHT_TYPE: ATT
NODE_COORD_SECTION
1 27.62 14.48
2 27.7 46.39
3 24.31 29.7
4 20.2 40.83
5 24.97 6.48
6 0.07 42.6
7 31.82 11.82
8 28.08 7.58
9 28.69 33.69
