Traveling Salesman Problem/TSP_generados/Aleatorio1620390937_9.opt.tour
NAME: Aleatorio1620390937_9.opt.tour
COMMENT: Optimal solution for Aleatorio1620390937_9 (121.57806756327203)
TYPE: TOUR
DIMENSION: 9
TOUR_SECTION
1 7 8 5 6 4 2 9 3
-1
EOF
